(declare-fun var0 () String)
(declare-fun var1 () String)
(declare-fun var2 () String)
(declare-fun var3 () String)
(declare-fun var4 () String)
(declare-fun var5 () String)
(declare-fun var6 () String)
(declare-fun var7 () String)
(declare-fun var8 () String)
(declare-fun var9 () String)
(declare-fun var10 () String)
(declare-fun var11 () String)
(declare-fun var12 () String)
(declare-fun var13 () String)
(declare-fun var14 () String)
(declare-fun var15 () String)
(declare-fun var16 () String)
(declare-fun var17 () String)
(declare-fun var18 () String)
(declare-fun var19 () String)
(declare-fun var20 () String)
(declare-fun var21 () String)
(declare-fun var22 () String)
(declare-fun var23 () String)
(declare-fun var24 () String)
(declare-fun var25 () String)
(declare-fun var26 () String)
(declare-fun var27 () String)
(declare-fun var28 () String)
(declare-fun var29 () String)
(declare-fun var30 () String)
(declare-fun var31 () String)
(declare-fun var32 () String)
(declare-fun var33 () String)
(declare-fun var34 () String)
(declare-fun var35 () String)
(declare-fun var36 () String)
(declare-fun var37 () String)
(declare-fun var38 () String)
(declare-fun var39 () String)
(declare-fun var40 () String)
(declare-fun var41 () String)
(declare-fun var42 () String)
(declare-fun var43 () String)
(declare-fun var44 () String)
(declare-fun var45 () String)
(declare-fun var46 () String)
(declare-fun var47 () String)
(declare-fun var48 () String)
(declare-fun var49 () String)
(declare-fun var50 () String)
(declare-fun var51 () String)
(declare-fun var52 () String)
(declare-fun var53 () String)
(declare-fun var54 () String)
(declare-fun var55 () String)
(declare-fun var56 () String)
(declare-fun var57 () String)
(declare-fun var58 () String)
(declare-fun var59 () String)
(declare-fun var60 () String)
(assert (= var0 (Concat var1 var2)))
(assert (= var2 (Concat var3 var4)))
(assert (= var4 (Concat var5 var6)))
(assert (= var6 (Concat var7 var8)))
(assert (= var8 (Concat var9 var10)))
(assert (= var10 (Concat var11 var12)))
(assert (= var12 (Concat var13 var14)))
(assert (= var14 (Concat var15 var16)))
(assert (= var16 (Concat var17 var18)))
(assert (= var18 (Concat var19 var20)))
(assert (= var20 (Concat var21 var22)))
(assert (= var22 (Concat var23 var24)))
(assert (= var24 (Concat var25 var26)))
(assert (= var26 (Concat var27 var28)))
(assert (= var28 (Concat var29 var30)))
(assert (= var30 (Concat var31 var32)))
(assert (= var32 (Concat var33 var34)))
(assert (= var34 (Concat var35 var36)))
(assert (= var36 (Concat var37 var38)))
(assert (= var38 (Concat var39 var40)))
(assert (= var40 (Concat var41 var42)))
(assert (= var42 (Concat var43 var44)))
(assert (= var44 (Concat var45 var46)))
(assert (= var46 (Concat var47 var48)))
(assert (= var48 (Concat var49 var50)))
(assert (= var50 (Concat var51 var52)))
(assert (= var52 (Concat var53 var54)))
(assert (= var54 (Concat var55 var56)))
(assert (= var56 (Concat var57 var58)))
(assert (= var58 (Concat var59 var60)))
(assert (= var0 "solution"))
(assert (= "|" (CharAt var46 30)))
(assert (= "U" (CharAt var59 49)))
(assert (= "`" (CharAt var59 98)))
(assert (= "B" (CharAt var48 59)))
(assert (= "T" (CharAt var44 56)))
(assert (= "~" (CharAt var55 14)))
(assert (= "F" (CharAt var35 39)))
(assert (= "/" (CharAt var7 59)))
(assert (= ">" (CharAt var10 17)))
(assert (= "m" (CharAt var23 94)))
(assert (= "V" (CharAt var1 77)))
(assert (= "7" (CharAt var60 47)))
(assert (= "[" (CharAt var26 50)))
(assert (= "p" (CharAt var20 58)))
(assert (= "C" (CharAt var38 49)))
(assert (= "p" (CharAt var5 32)))
(assert (= "0" (CharAt var50 39)))
(assert (= "X" (CharAt var7 80)))
(assert (= "l" (CharAt var14 67)))
(assert (= "9" (CharAt var37 87)))
(assert (= "8" (CharAt var7 92)))
(assert (= "N" (CharAt var47 99)))
(assert (= "B" (CharAt var56 23)))
(assert (= "S" (CharAt var53 28)))
(assert (= "b" (CharAt var20 26)))
(assert (= ")" (CharAt var56 24)))
(assert (= "-" (CharAt var42 19)))
(assert (= "3" (CharAt var31 77)))
(assert (= "'" (CharAt var15 55)))
(assert (= "F" (CharAt var49 24)))
(assert (= "$" (CharAt var9 78)))
(assert (= "=" (CharAt var4 41)))
(assert (= "(" (CharAt var19 42)))
(assert (= "g" (CharAt var34 58)))
(assert (= "r" (CharAt var30 96)))
(assert (= "]" (CharAt var17 3)))
(assert (= "N" (CharAt var60 71)))
(assert (= "X" (CharAt var25 6)))
(assert (= "%" (CharAt var18 39)))
(assert (= "T" (CharAt var19 45)))
(assert (= "I" (CharAt var55 95)))
(assert (= "T" (CharAt var19 91)))
(assert (= "(" (CharAt var45 41)))
(assert (= "`" (CharAt var33 64)))
(assert (= "#" (CharAt var13 19)))
(assert (= "(" (CharAt var50 94)))
(assert (= "6" (CharAt var32 8)))
(assert (= "d" (CharAt var47 47)))
(check-sat)